CMD:
./solvers/bin/cadical --plain --no-reduce -t 1600 ./data/cnfs//qspiflash_dualflexpress_divthree-p113/qspiflash_dualflexpress_divthree-p113.58.cnf

c --- [ banner ] -------------------------------------------------------------
c 
c CaDiCaL SAT Solver
c Copyright (c) 2016-2024
c A. Biere, M. Fleury, N. Froleyks, K. Fazekas, F. Pollitt, T. Faller
c JKU Linz, University of Freiburg, TU Wien
c 
c Version 2.1.3 5296d3d2a9bf48c154ab2acb5e44625776d821bf
c g++ (Gentoo 12.3.1_p20230526 p2) 12.3.1 20230526 -Wall -Wextra -O3 -DNDEBUG
c Sat Aug 9 07:26:21 PDT 2025 Linux cedar2.int.cedar.computecanada.ca 5.14.0-362.24.2.el9_3.x86_64 x86_64
c 
c --- [ limit ] --------------------------------------------------------------
c 
c setting time limit to 1600 seconds real time (due to '-t 1600')
c 
c --- [ parsing input ] ------------------------------------------------------
c 
c reading DIMACS file from './data/cnfs//qspiflash_dualflexpress_divthree-p113/qspiflash_dualflexpress_divthree-p113.58.cnf'
c opening file to read './data/cnfs//qspiflash_dualflexpress_divthree-p113/qspiflash_dualflexpress_divthree-p113.58.cnf'
c found 'p cnf 174031 507797' header
c parsed 507797 clauses in 0.08 seconds process time
c 
c --- [ options ] ------------------------------------------------------------
c 
c   --compact=false                (different from default 'true')
c   --decompose=false              (different from default 'true')
c   --deduplicate=false            (different from default 'true')
c   --elim=false                   (different from default 'true')
c   --probe=false                  (different from default 'true')
c   --reduce=false                 (different from default 'true')
c   --subsume=false                (different from default 'true')
c   --ternary=false                (different from default 'true')
c   --transred=false               (different from default 'true')
c   --vivify=false                 (different from default 'true')
c 
c --- [ solving ] ------------------------------------------------------------
c 
c time measured in process time since initialization
c 
c  seconds  reductions  redundant  irredundant
c         MB    restarts       trail       variables
c          level   conflicts       glue          remaining
c 
c *  0.08 81  0 0   0    0    0  0% 0 487112 159856 92%
c {  0.11 82  0 0   0    0    0  0% 0 487112 159856 92%
c i  0.11 82  0 0   0    1    0  9% 0 487112 159855 92%
c i  0.12 83 124 0   0   17    9 19% 2 487112 159850 92%
c i  0.13 83 114 0   0   20   11 19% 1 487112 159633 92%
c i  0.13 83 109 0   0   22   12 18% 1 487112 159626 92%
c i  0.13 83 78 0   1   51   39 17% 2 487112 159579 92%
c i  0.13 83 76 0   1   52   39 16% 2 487112 159413 92%
c i  0.13 83 62 0   1   67   48 15% 2 487112 159371 92%
c i  0.14 83 53 0   6  141  107 15% 3 487112 159114 91%
c i  0.14 83 46 0  11  179  141 14% 3 487112 159110 91%
c i  0.14 83 46 0  11  180  141 14% 3 487112 159107 91%
c i  0.15 84 69 0  11  312  262 17% 3 487112 159088 91%
c i  0.15 84 69 0  11  315  264 18% 3 487112 159080 91%
c i  0.15 84 72 0  11  329  275 18% 3 487112 159030 91%
c i  0.16 84 75 0  11  348  292 18% 3 487112 159013 91%
c i  0.16 84 75 0  11  349  292 18% 3 487112 159007 91%
c i  0.18 84 64 0  35  556  481 18% 3 487112 158941 91%
c i  0.18 84 60 0  48  606  522 17% 3 487112 158937 91%
c i  0.19 84 58 0  58  640  552 17% 3 487112 158933 91%
c 
c  seconds  reductions  redundant  irredundant
c         MB    restarts       trail       variables
c          level   conflicts       glue          remaining
c 
c i  0.19 84 57 0  61  658  567 17% 3 487112 158929 91%
c i  0.20 84 54 0  78  724  628 16% 3 487112 158925 91%
c }  0.22 84 45 0 118 1000  867 15% 3 487112 158925 91%
c [  0.22 84  0 0 118 1000  867  0% 0 487112 158925 91%
c O  0.24 84 635 0 118 1014  879 38% 1 487112 158925 91%
c i  0.24 84 635 0 118 1014  879 38% 1 487112 158912 91%
c i  0.24 84 423 0 118 1021  885 30% 1 487112 158900 91%
c i  0.25 84 372 0 118 1025  887 28% 1 487112 158892 91%
c i  0.25 84 154 0 118 1067  920 19% 2 487112 158870 91%
c i  0.25 84 145 0 118 1072  923 18% 2 487112 158865 91%
c i  0.25 84 143 0 118 1073  923 18% 2 487112 158858 91%
c i  0.25 84 142 0 118 1074  923 18% 2 487112 158842 91%
c i  0.25 84 138 0 118 1076  924 18% 2 487112 158827 91%
c i  0.26 84 98 0 118 1125  964 16% 3 487112 158821 91%
c i  0.26 84 95 0 118 1131  965 16% 3 487112 158814 91%
c i  0.26 84 85 0 118 1148  981 15% 3 487112 158805 91%
c i  0.26 84 84 0 118 1150  982 15% 3 487112 158800 91%
c i  0.26 84 80 0 118 1158  988 15% 3 487112 158793 91%
c i  0.26 84 59 0 118 1228 1055 14% 3 487112 158783 91%
c i  0.26 84 58 0 118 1231 1057 14% 3 487112 158776 91%
c 
c  seconds  reductions  redundant  irredundant
c         MB    restarts       trail       variables
c          level   conflicts       glue          remaining
c 
c i  0.26 84 58 0 118 1232 1057 14% 3 487112 158762 91%
c i  0.26 84 55 0 118 1250 1071 14% 3 487112 158748 91%
c i  0.29 84 28 0 118 1588 1385 13% 3 487112 158738 91%
c i  0.32 84 22 0 118 1849 1608 13% 3 487112 158734 91%
c i  0.32 84 22 0 118 1853 1610 13% 3 487112 158727 91%
c i  0.32 84 22 0 118 1857 1613 13% 3 487112 158682 91%
c i  0.32 84 22 0 118 1858 1613 13% 3 487112 158673 91%
c i  0.32 84 22 0 118 1864 1617 13% 3 487112 158666 91%
c i  0.32 84 22 0 118 1867 1619 13% 3 487112 158650 91%
c i  0.32 84 22 0 118 1876 1627 13% 3 487112 158645 91%
c ]  0.32 84 21 0 118 1889 1633 13% 3 487112 153569 88%
c 0  0.32 84 21 0 118 1889 1633 13% 3 487112 153569 88%
c 
c --- [ result ] -------------------------------------------------------------
c 
s UNSATISFIABLE
c 
c --- [ run-time profiling ] -------------------------------------------------
c 
c process time taken by individual solving procedures
c (percentage relative to process time for solving)
c 
c         0.25   99.96% search
c         0.11   46.46% unstable
c         0.10   41.54% stable
c         0.08   31.35% parse
c         0.03   11.94% lucky
c         0.00    0.00% simplify
c   =================================
c         0.25   75.99% solve
c 
c last line shows process time for solving
c (percentage relative to total process time)
c 
c --- [ statistics ] ---------------------------------------------------------
c 
c chronological:               894        47.33 %  of conflicts
c conflicts:                  1889      7652.58    per second
c decisions:                  7384     29913.51    per second
c fixed:                     20428        11.74 %  of all variables
c learned:                    1776        94.02 %  per conflict
c learned_lits:              17940       100.00 %  learned literals
c minimized:                     0         0.00 %  learned literals
c shrunken:                   2710        15.11 %  learned literals
c minishrunken:               2365        13.18 %  learned literals
c otfs:                         34         1.80 %  of conflict
c propagations:            3614961        14.64 M  per second
c rephased:                      1      1889.00    interval
c restarts:                    118        16.01    interval
c stabilizing:                   1        47.01 %  of conflicts
c subsumed:                     95         0.02 %  of all clauses
c strengthened:                 33         0.01 %  of all clauses
c 
c seconds are measured in process time for solving
c 
c --- [ resources ] ----------------------------------------------------------
c 
c total process time since initialization:         0.32    seconds
c total real time since initialization:            0.33    seconds
c maximum resident set size of process:           83.14    MB
c 
c --- [ shutting down ] ------------------------------------------------------
c 
c exit 20
